NAME 
ROWS
 N  OBJ
 L  R0      
 L  R1      
 L  R2      
 E  R3      
 E  R4      
 E  R5      
 E  R6      
 E  R7      
 E  R8      
 E  R9      
 E  R10     
 E  R11     
 E  R12     
 E  R13     
 E  R14     
 E  R15     
 E  R16     
 E  R17     
 E  R18     
 E  R19     
 E  R20     
 E  R21     
 E  R22     
 E  R23     
 E  R24     
 E  R25     
 E  R26     
 E  R27     
COLUMNS
    MARKER    'MARKER'                 'INTORG'
    I0(17)    OBJ       -163
    I0(17)    R0        88
    I0(17)    R1        110
    I0(17)    R2        -49
    I0(17)    R3        3
    I0(17)    R4        6
    I0(17)    R5        16
    I0(17)    R6        5
    I0(17)    R7        8
    I0(17)    R8        4
    I0(17)    R9        1
    I0(17)    R10       7
    I0(17)    R11       8
    I0(17)    R12       13
    I0(17)    R14       8
    I0(17)    R15       17
    I0(17)    R16       12
    I0(17)    R27       1
    I1(15)    OBJ       -199
    I1(15)    R0        -90
    I1(15)    R1        116
    I1(15)    R2        147
    I1(15)    R3        12
    I1(15)    R4        17
    I1(15)    R6        6
    I1(15)    R9        16
    I1(15)    R10       3
    I1(15)    R11       12
    I1(15)    R13       1
    I1(15)    R14       9
    I1(15)    R15       14
    I1(15)    R16       2
    I1(15)    R17       13
    I1(15)    R27       1
    I2(16)    OBJ       184
    I2(16)    R0        -43
    I2(16)    R1        83
    I2(16)    R2        26
    I2(16)    R3        15
    I2(16)    R5        -1
    I2(16)    R7        12
    I2(16)    R8        16
    I2(16)    R9        7
    I2(16)    R10       3
    I2(16)    R11       -1
    I2(16)    R12       17
    I2(16)    R13       15
    I2(16)    R14       5
    I2(16)    R16       17
    I2(16)    R17       13
    I2(16)    R27       1
    I3(15)    OBJ       -177
    I3(15)    R0        -171
    I3(15)    R1        -172
    I3(15)    R2        -6
    I3(15)    R4        8
    I3(15)    R5        11
    I3(15)    R6        17
    I3(15)    R7        17
    I3(15)    R8        4
    I3(15)    R9        2
    I3(15)    R10       14
    I3(15)    R12       1
    I3(15)    R13       2
    I3(15)    R14       8
    I3(15)    R16       8
    I3(15)    R27       1
    I4(16)    OBJ       33
    I4(16)    R0        31
    I4(16)    R1        64
    I4(16)    R2        -148
    I4(16)    R3        1
    I4(16)    R4        7
    I4(16)    R6        9
    I4(16)    R7        19
    I4(16)    R8        9
    I4(16)    R9        4
    I4(16)    R10       14
    I4(16)    R11       -1
    I4(16)    R12       14
    I4(16)    R14       1
    I4(16)    R15       18
    I4(16)    R16       6
    I4(16)    R27       1
    I5(16)    OBJ       -196
    I5(16)    R0        -80
    I5(16)    R1        -107
    I5(16)    R2        117
    I5(16)    R3        6
    I5(16)    R4        12
    I5(16)    R5        11
    I5(16)    R6        1
    I5(16)    R7        18
    I5(16)    R8        2
    I5(16)    R9        2
    I5(16)    R11       15
    I5(16)    R12       3
    I5(16)    R14       13
    I5(16)    R15       -1
    I5(16)    R17       2
    I5(16)    R27       1
    I6(15)    OBJ       -192
    I6(15)    R0        160
    I6(15)    R1        190
    I6(15)    R2        -175
    I6(15)    R3        3
    I6(15)    R6        14
    I6(15)    R7        8
    I6(15)    R8        15
    I6(15)    R9        18
    I6(15)    R10       6
    I6(15)    R11       7
    I6(15)    R12       16
    I6(15)    R14       19
    I6(15)    R16       3
    I6(15)    R17       10
    I6(15)    R27       1
    I7(15)    OBJ       151
    I7(15)    R0        189
    I7(15)    R1        5
    I7(15)    R2        172
    I7(15)    R3        15
    I7(15)    R5        6
    I7(15)    R6        8
    I7(15)    R8        12
    I7(15)    R9        17
    I7(15)    R11       9
    I7(15)    R12       2
    I7(15)    R13       18
    I7(15)    R14       7
    I7(15)    R15       2
    I7(15)    R17       9
    I7(15)    R27       1
    I8(16)    OBJ       -95
    I8(16)    R0        -49
    I8(16)    R1        126
    I8(16)    R2        25
    I8(16)    R3        11
    I8(16)    R4        -1
    I8(16)    R5        1
    I8(16)    R7        15
    I8(16)    R8        -1
    I8(16)    R9        17
    I8(16)    R10       6
    I8(16)    R11       14
    I8(16)    R12       8
    I8(16)    R14       7
    I8(16)    R16       17
    I8(16)    R17       5
    I8(16)    R27       1
    I9(14)    OBJ       105
    I9(14)    R0        -32
    I9(14)    R1        -122
    I9(14)    R2        67
    I9(14)    R3        11
    I9(14)    R4        2
    I9(14)    R5        2
    I9(14)    R6        4
    I9(14)    R7        11
    I9(14)    R10       10
    I9(14)    R11       13
    I9(14)    R15       10
    I9(14)    R16       17
    I9(14)    R17       12
    I9(14)    R27       1
    I10(15)   OBJ       69
    I10(15)   R0        -164
    I10(15)   R1        72
    I10(15)   R2        -102
    I10(15)   R4        14
    I10(15)   R5        5
    I10(15)   R7        1
    I10(15)   R9        11
    I10(15)   R10       18
    I10(15)   R11       12
    I10(15)   R13       10
    I10(15)   R14       16
    I10(15)   R15       4
    I10(15)   R16       -1
    I10(15)   R17       9
    I10(15)   R27       1
    I11(16)   OBJ       -102
    I11(16)   R0        145
    I11(16)   R1        42
    I11(16)   R2        119
    I11(16)   R3        17
    I11(16)   R4        5
    I11(16)   R5        -1
    I11(16)   R6        2
    I11(16)   R7        14
    I11(16)   R8        -1
    I11(16)   R10       19
    I11(16)   R11       2
    I11(16)   R12       3
    I11(16)   R13       19
    I11(16)   R14       8
    I11(16)   R17       1
    I11(16)   R27       1
    I12(14)   OBJ       -181
    I12(14)   R0        -183
    I12(14)   R2        4
    I12(14)   R3        11
    I12(14)   R5        -1
    I12(14)   R6        1
    I12(14)   R9        4
    I12(14)   R10       13
    I12(14)   R12       4
    I12(14)   R13       4
    I12(14)   R14       13
    I12(14)   R15       8
    I12(14)   R16       9
    I12(14)   R17       -1
    I12(14)   R27       1
    I13(16)   OBJ       14
    I13(16)   R0        -139
    I13(16)   R1        -2
    I13(16)   R2        -96
    I13(16)   R4        7
    I13(16)   R5        14
    I13(16)   R6        14
    I13(16)   R7        19
    I13(16)   R8        8
    I13(16)   R10       9
    I13(16)   R12       7
    I13(16)   R13       17
    I13(16)   R14       2
    I13(16)   R15       4
    I13(16)   R16       8
    I13(16)   R17       9
    I13(16)   R27       1
    I14(15)   OBJ       53
    I14(15)   R0        -73
    I14(15)   R1        85
    I14(15)   R2        -27
    I14(15)   R3        1
    I14(15)   R4        6
    I14(15)   R5        -1
    I14(15)   R6        3
    I14(15)   R7        8
    I14(15)   R9        19
    I14(15)   R10       19
    I14(15)   R14       9
    I14(15)   R15       13
    I14(15)   R16       -1
    I14(15)   R17       11
    I14(15)   R27       1
    MARKER    'MARKER'                 'INTEND'
    C15(24)   OBJ       -2
    C15(24)   R0        6
    C15(24)   R1        3
    C15(24)   R2        6
    C15(24)   R3        18
    C15(24)   R6        17
    C15(24)   R7        9
    C15(24)   R8        18
    C15(24)   R9        18
    C15(24)   R10       2
    C15(24)   R11       18
    C15(24)   R12       10
    C15(24)   R13       19
    C15(24)   R14       7
    C15(24)   R15       1
    C15(24)   R16       15
    C15(24)   R17       -1
    C15(24)   R18       3
    C15(24)   R19       17
    C15(24)   R20       1
    C15(24)   R21       10
    C15(24)   R22       11
    C15(24)   R23       -1
    C15(24)   R24       10
    C15(24)   R26       9
    C16(19)   OBJ       6
    C16(19)   R0        9
    C16(19)   R1        -8
    C16(19)   R2        -8
    C16(19)   R3        19
    C16(19)   R6        4
    C16(19)   R7        8
    C16(19)   R8        12
    C16(19)   R9        3
    C16(19)   R10       4
    C16(19)   R11       14
    C16(19)   R12       11
    C16(19)   R13       15
    C16(19)   R14       -1
    C16(19)   R15       3
    C16(19)   R16       2
    C16(19)   R17       11
    C16(19)   R20       3
    C16(19)   R21       14
    C16(19)   R22       6
    C17(21)   OBJ       -3
    C17(21)   R0        -4
    C17(21)   R1        -8
    C17(21)   R2        -9
    C17(21)   R3        12
    C17(21)   R4        1
    C17(21)   R6        16
    C17(21)   R7        7
    C17(21)   R8        8
    C17(21)   R10       4
    C17(21)   R11       2
    C17(21)   R12       6
    C17(21)   R13       14
    C17(21)   R14       11
    C17(21)   R16       6
    C17(21)   R17       19
    C17(21)   R18       10
    C17(21)   R20       11
    C17(21)   R21       19
    C17(21)   R22       1
    C17(21)   R25       2
    C17(21)   R26       15
    C18(22)   OBJ       -5
    C18(22)   R0        5
    C18(22)   R1        -2
    C18(22)   R2        -1
    C18(22)   R3        3
    C18(22)   R4        3
    C18(22)   R5        12
    C18(22)   R6        12
    C18(22)   R9        10
    C18(22)   R10       -1
    C18(22)   R11       9
    C18(22)   R12       14
    C18(22)   R13       4
    C18(22)   R14       15
    C18(22)   R15       14
    C18(22)   R16       19
    C18(22)   R17       12
    C18(22)   R18       18
    C18(22)   R19       12
    C18(22)   R20       6
    C18(22)   R21       15
    C18(22)   R22       15
    C18(22)   R23       13
    C19(21)   OBJ       -7
    C19(21)   R0        -3
    C19(21)   R1        8
    C19(21)   R2        9
    C19(21)   R3        8
    C19(21)   R4        17
    C19(21)   R6        19
    C19(21)   R7        13
    C19(21)   R8        17
    C19(21)   R9        10
    C19(21)   R10       12
    C19(21)   R11       4
    C19(21)   R12       3
    C19(21)   R15       5
    C19(21)   R18       12
    C19(21)   R19       17
    C19(21)   R20       9
    C19(21)   R21       1
    C19(21)   R22       14
    C19(21)   R23       19
    C19(21)   R25       15
    C19(21)   R26       6
    C20(20)   OBJ       1
    C20(20)   R0        3
    C20(20)   R1        1
    C20(20)   R2        1
    C20(20)   R3        3
    C20(20)   R6        18
    C20(20)   R7        18
    C20(20)   R8        1
    C20(20)   R10       12
    C20(20)   R11       1
    C20(20)   R13       5
    C20(20)   R14       15
    C20(20)   R15       18
    C20(20)   R16       17
    C20(20)   R17       5
    C20(20)   R18       1
    C20(20)   R19       8
    C20(20)   R21       8
    C20(20)   R22       6
    C20(20)   R23       14
    C20(20)   R26       8
    C21(23)   OBJ       -4
    C21(23)   R0        1
    C21(23)   R1        -1
    C21(23)   R2        1
    C21(23)   R3        3
    C21(23)   R4        10
    C21(23)   R5        11
    C21(23)   R6        11
    C21(23)   R7        13
    C21(23)   R9        18
    C21(23)   R10       15
    C21(23)   R11       -1
    C21(23)   R12       3
    C21(23)   R13       2
    C21(23)   R14       8
    C21(23)   R15       4
    C21(23)   R16       13
    C21(23)   R17       12
    C21(23)   R18       8
    C21(23)   R20       15
    C21(23)   R21       2
    C21(23)   R23       7
    C21(23)   R25       3
    C21(23)   R26       10
    C22(24)   OBJ       3
    C22(24)   R0        1
    C22(24)   R1        7
    C22(24)   R2        -7
    C22(24)   R3        3
    C22(24)   R4        17
    C22(24)   R5        16
    C22(24)   R6        19
    C22(24)   R7        18
    C22(24)   R8        4
    C22(24)   R11       19
    C22(24)   R12       -1
    C22(24)   R13       2
    C22(24)   R14       17
    C22(24)   R15       7
    C22(24)   R16       18
    C22(24)   R17       6
    C22(24)   R19       2
    C22(24)   R20       8
    C22(24)   R21       2
    C22(24)   R22       2
    C22(24)   R23       10
    C22(24)   R24       19
    C22(24)   R25       12
    C22(24)   R26       16
    C23(19)   OBJ       -3
    C23(19)   R0        6
    C23(19)   R2        3
    C23(19)   R3        2
    C23(19)   R4        6
    C23(19)   R5        11
    C23(19)   R6        3
    C23(19)   R7        17
    C23(19)   R9        1
    C23(19)   R10       18
    C23(19)   R11       7
    C23(19)   R12       2
    C23(19)   R13       3
    C23(19)   R14       4
    C23(19)   R16       3
    C23(19)   R17       15
    C23(19)   R18       19
    C23(19)   R19       16
    C23(19)   R22       16
    C23(19)   R24       9
    C24(24)   OBJ       -4
    C24(24)   R0        2
    C24(24)   R1        -2
    C24(24)   R2        7
    C24(24)   R3        6
    C24(24)   R4        12
    C24(24)   R7        19
    C24(24)   R8        15
    C24(24)   R9        -1
    C24(24)   R10       10
    C24(24)   R11       13
    C24(24)   R12       19
    C24(24)   R13       -1
    C24(24)   R14       -1
    C24(24)   R15       17
    C24(24)   R16       17
    C24(24)   R17       4
    C24(24)   R18       16
    C24(24)   R19       18
    C24(24)   R20       12
    C24(24)   R21       11
    C24(24)   R22       1
    C24(24)   R23       17
    C24(24)   R25       16
    C24(24)   R26       9
    C25(1)    R3        1
    C26(1)    R4        1
    C27(1)    R5        1
    C28(1)    R6        1
    C29(1)    R7        1
    C30(1)    R8        1
    C31(1)    R9        1
    C32(1)    R10       1
    C33(1)    R11       1
    C34(1)    R12       1
    C35(1)    R13       1
    C36(1)    R14       1
    C37(1)    R15       1
    C38(1)    R16       1
    C39(1)    R17       1
    C40(1)    R18       1
    C41(1)    R19       1
    C42(1)    R20       1
    C43(1)    R21       1
    C44(1)    R22       1
    C45(1)    R23       1
    C46(1)    R24       1
    C47(1)    R25       1
    C48(1)    R26       1
    C49(1)    R27       1
RHS
    RHS1      R0        -1.7312662721892335e+02
    RHS1      R1        2.0706982248521376e+02
    RHS1      R2        3.5427455621302676e+02
    RHS1      R3        71
    RHS1      R4        73
    RHS1      R5        90
    RHS1      R6        71
    RHS1      R7        59
    RHS1      R8        99
    RHS1      R9        78
    RHS1      R10       92
    RHS1      R11       99
    RHS1      R12       95
    RHS1      R13       68
    RHS1      R14       93
    RHS1      R15       87
    RHS1      R16       63
    RHS1      R17       96
    RHS1      R18       62
    RHS1      R19       78
    RHS1      R20       50
    RHS1      R21       58
    RHS1      R22       62
    RHS1      R23       81
    RHS1      R24       59
    RHS1      R25       70
    RHS1      R26       80
    RHS1      R27       5
BOUNDS
 UP BND1      I0(17)    2
 UP BND1      I1(15)    2
 UP BND1      I2(16)    2
 UP BND1      I3(15)    2
 UP BND1      I4(16)    2
 UP BND1      I5(16)    2
 UP BND1      I6(15)    2
 UP BND1      I7(15)    2
 UP BND1      I8(16)    2
 UP BND1      I9(14)    2
 UP BND1      I10(15)   2
 UP BND1      I11(16)   2
 UP BND1      I12(14)   2
 UP BND1      I13(16)   2
 UP BND1      I14(15)   2
ENDATA
